Two H atoms
1.0
5.0 0.0 0.0
0.0 5.0 0.0
0.0 0.0 5.0
H
2
Direct
0.0 0.0 0.0
0.5 0.5 0.5